c description: Random 3-CNF over 16 variables and 68 clauses
c generator: CNFgen (0.9.2)
c copyright: (C) 2012-2022 Massimo Lauria <massimo.lauria@uniroma1.it>
c url: https://massimolauria.net/cnfgen
c command line: cnfgen --output CNF_4.28/16_bit_68_744.cnf randkcnf 3 16 68
c
p cnf 16 68
7 12 -14 0
5 9 10 0
1 8 9 0
-1 8 9 0
2 9 14 0
-4 8 16 0
1 -12 -14 0
-2 -9 11 0
3 -7 9 0
10 -11 13 0
-3 6 -12 0
-7 -9 -13 0
1 11 -13 0
-9 11 -14 0
-8 10 -13 0
-4 -6 14 0
2 -10 11 0
-12 13 16 0
5 -6 -11 0
-1 8 14 0
-2 7 14 0
-2 4 10 0
-3 7 15 0
-4 -13 16 0
2 -4 -8 0
-2 5 -14 0
2 -7 -10 0
2 11 14 0
3 5 8 0
-9 -12 -15 0
8 9 13 0
4 6 -15 0
-4 -6 11 0
-1 5 -8 0
-1 -3 8 0
3 8 -16 0
-2 3 -13 0
-1 7 11 0
8 10 -14 0
-1 -7 -12 0
-8 11 14 0
-5 -15 16 0
1 -3 -15 0
-3 9 14 0
8 13 16 0
-2 -3 -5 0
-1 3 10 0
-4 -10 -11 0
-4 -5 -8 0
2 -5 -6 0
-8 -10 -12 0
3 -5 -16 0
1 6 -16 0
-4 6 8 0
1 -4 16 0
-1 -2 -7 0
3 -5 11 0
6 -8 13 0
-3 -9 -10 0
-5 10 11 0
3 6 -16 0
10 -13 14 0
-12 14 -16 0
6 -11 -13 0
2 8 12 0
1 -14 16 0
-7 -8 11 0
-6 14 16 0
